(declare-fun Constructed_Argument_t () String)
(declare-fun CreateAsClass () Bool)
(declare-fun ExpandObjSwitcher () Real)
(declare-fun Constructed_Argument_2_t () String)
(declare-fun Constructed_Argument_3_t () String)
(declare-fun Constructed_Argument_4_t () String)
(declare-fun CreateAsClass_2 () Bool)
(declare-fun Constructed_Argument_2_elements__normalized_0_t () String)
(declare-fun Constructed_Argument_2_elements__normalized_0 () String)
(declare-fun Constructed_Argument_2_elements_name_1_t () String)
(declare-fun Constructed_Argument_2_elements_path_2_t () String)
(declare-fun Constructed_Argument_2_elements_query_3_t () String)
(declare-fun Constructed_Argument_2_elements_name_4_t () String)
(declare-fun Constructed_Argument_2_elements_path_5_t () String)
(define-funs-rec ( ( str.repeat ((x!1 String) (x!2 Int)) String)
                   ( str.whiteLeft ((x!1 String) (x!2 Int)) Int)
                   ( str.whiteRight ((x!1 String) (x!2 Int)) Int))
                 ( (ite (<= x!2 0)
                        ""
                        (str.++ x!1 ((_ str.repeat 0) x!1 (- x!2 1))))
                   (ite (= (str.at x!1 x!2) " ")
                        ((_ str.whiteLeft 0) x!1 (+ x!2 1))
                        x!2)
                   (ite (= (str.at x!1 x!2) " ")
                        ((_ str.whiteRight 0) x!1 (- x!2 1))
                        x!2)))
(assert (not (= Constructed_Argument_t "string")))
(assert (not (= Constructed_Argument_t "number")))
(assert (not (= Constructed_Argument_t "boolean")))
(assert (not (= Constructed_Argument_t "object")))
(assert (not (= Constructed_Argument_t "array_number")))
(assert (not (= Constructed_Argument_t "array_string")))
(assert (not (= Constructed_Argument_t "array_bool")))
(assert (not (= Constructed_Argument_t "null")))
(assert CreateAsClass)
(assert (= ExpandObjSwitcher 0.0))
(assert (= Constructed_Argument_2_t "object"))
(assert (not (= Constructed_Argument_3_t "string")))
(assert (not (= Constructed_Argument_3_t "number")))
(assert (not (= Constructed_Argument_3_t "boolean")))
(assert (not (= Constructed_Argument_3_t "object")))
(assert (not (= Constructed_Argument_3_t "array_number")))
(assert (not (= Constructed_Argument_3_t "array_string")))
(assert (not (= Constructed_Argument_3_t "array_bool")))
(assert (not (= Constructed_Argument_3_t "null")))
(assert (not (= Constructed_Argument_4_t "string")))
(assert (not (= Constructed_Argument_4_t "number")))
(assert (not (= Constructed_Argument_4_t "boolean")))
(assert (not (= Constructed_Argument_4_t "object")))
(assert (not (= Constructed_Argument_4_t "array_number")))
(assert (not (= Constructed_Argument_4_t "array_string")))
(assert (not (= Constructed_Argument_4_t "array_bool")))
(assert (not (= Constructed_Argument_4_t "null")))
(assert (not CreateAsClass_2))
(assert (= Constructed_Argument_2_elements__normalized_0_t "string"))
(assert (not (= Constructed_Argument_2_elements__normalized_0 "")))
(assert (not (= Constructed_Argument_2_elements_name_1_t "string")))
(assert (not (= Constructed_Argument_2_elements_name_1_t "number")))
(assert (not (= Constructed_Argument_2_elements_name_1_t "boolean")))
(assert (not (= Constructed_Argument_2_elements_name_1_t "object")))
(assert (not (= Constructed_Argument_2_elements_name_1_t "array_number")))
(assert (not (= Constructed_Argument_2_elements_name_1_t "array_string")))
(assert (not (= Constructed_Argument_2_elements_name_1_t "array_bool")))
(assert (not (= Constructed_Argument_2_elements_name_1_t "null")))
(assert (not (= Constructed_Argument_2_elements_path_2_t "string")))
(assert (not (= Constructed_Argument_2_elements_path_2_t "number")))
(assert (not (= Constructed_Argument_2_elements_path_2_t "boolean")))
(assert (not (= Constructed_Argument_2_elements_path_2_t "object")))
(assert (not (= Constructed_Argument_2_elements_path_2_t "array_number")))
(assert (not (= Constructed_Argument_2_elements_path_2_t "array_string")))
(assert (not (= Constructed_Argument_2_elements_path_2_t "array_bool")))
(assert (not (= Constructed_Argument_2_elements_path_2_t "null")))
(assert (not (= Constructed_Argument_2_elements_query_3_t "string")))
(assert (not (= Constructed_Argument_2_elements_query_3_t "number")))
(assert (not (= Constructed_Argument_2_elements_query_3_t "boolean")))
(assert (not (= Constructed_Argument_2_elements_query_3_t "object")))
(assert (not (= Constructed_Argument_2_elements_query_3_t "array_number")))
(assert (not (= Constructed_Argument_2_elements_query_3_t "array_string")))
(assert (not (= Constructed_Argument_2_elements_query_3_t "array_bool")))
(assert (not (= Constructed_Argument_2_elements_query_3_t "null")))
(assert (= Constructed_Argument_2_elements_name_4_t "object"))
(assert (not (= Constructed_Argument_2_elements_path_5_t "string")))
(assert (not (= Constructed_Argument_2_elements_path_5_t "number")))
(assert (not (= Constructed_Argument_2_elements_path_5_t "boolean")))
(assert (not (= Constructed_Argument_2_elements_path_5_t "object")))
(assert (not (= Constructed_Argument_2_elements_path_5_t "array_number")))
(assert (= Constructed_Argument_2_elements_path_5_t "array_string"))

(check-sat)
